
******************************************************************************
This program contains Ipopt, a library for large-scale nonlinear optimization.
 Ipopt is released as open source code under the Eclipse Public License (EPL).
         For more information visit http://projects.coin-or.org/Ipopt

This version of Ipopt was compiled from source code available at
    https://github.com/IDAES/Ipopt as part of the Institute for the Design of
    Advanced Energy Systems Process Systems Engineering Framework (IDAES PSE
    Framework) Copyright (c) 2018-2019. See https://github.com/IDAES/idaes-pse.

This version of Ipopt was compiled using HSL, a collection of Fortran codes
    for large-scale scientific computation.  All technical papers, sales and
    publicity material resulting from use of the HSL codes within IPOPT must
    contain the following acknowledgement:
        HSL, a collection of Fortran codes for large-scale scientific
        computation. See http://www.hsl.rl.ac.uk.
******************************************************************************

This is Ipopt version 3.13.2, running with linear solver ma27.

Number of nonzeros in equality constraint Jacobian...:      808
Number of nonzeros in inequality constraint Jacobian.:        0
Number of nonzeros in Lagrangian Hessian.............:      702

Total number of variables............................:      351
                     variables with only lower bounds:      108
                variables with lower and upper bounds:      189
                     variables with only upper bounds:        0
Total number of equality constraints.................:      350
Total number of inequality constraints...............:        0
        inequality constraints with only lower bounds:        0
   inequality constraints with lower and upper bounds:        0
        inequality constraints with only upper bounds:        0

iter    objective    inf_pr   inf_du lg(mu)  ||d||  lg(rg) alpha_du alpha_pr  ls
   0  0.0000000e+00 4.46e-01 1.78e-15  -1.0 0.00e+00    -  0.00e+00 0.00e+00   0
   1  2.4558310e+00 2.92e-01 1.73e+04  -1.0 2.60e+05    -  6.56e-01 3.69e-01h  1
   2  2.5653404e+00 2.89e-01 1.72e+04  -1.0 2.03e+05    -  7.71e-01 1.18e-02h  1
   3  2.1537711e+01 6.38e-02 1.04e+04  -1.0 2.41e+05    -  7.70e-01 8.73e-01h  1
   4  3.0993552e+01 2.57e-03 1.43e+03  -1.0 6.18e+04    -  9.36e-01 9.90e-01h  1
   5  3.1378852e+01 2.90e-05 1.07e+01  -1.0 2.32e+03    -  9.90e-01 9.90e-01h  1
   6  3.1380552e+01 2.81e-05 1.21e+06  -1.0 6.54e+02    -  9.90e-01 3.09e-02f  6
   7  3.1384631e+01 2.73e-05 2.42e+06  -1.0 1.64e+03    -  9.90e-01 3.09e-02f  6
   8  3.1514294e+01 1.16e-04 3.76e+04  -1.0 1.64e+03    -  1.00e+00 9.90e-01H  1
   9  3.1511729e+01 1.31e-06 1.34e+06  -1.0 3.36e+01    -  1.00e+00 9.90e-01h  1
iter    objective    inf_pr   inf_du lg(mu)  ||d||  lg(rg) alpha_du alpha_pr  ls
  10  3.1511782e+01 1.33e-08 1.34e+08  -1.0 6.77e-01    -  1.00e+00 9.90e-01h  1
  11  3.1511782e+01 1.33e-10 1.34e+10  -1.0 6.77e-03    -  1.00e+00 9.90e-01h  1
In iteration 11, 27 Slacks too small, adjusting variable bounds
  12  3.1511782e+01 1.68e-12 1.34e+12  -1.0 6.77e-05    -  1.00e+00 9.90e-01h  1
  13  3.1511782e+01 2.84e-12 2.08e-02  -1.0 6.68e-07    -  1.00e+00 1.00e+00H  1
  14  3.1511780e+01 2.14e-12 1.36e+12  -9.0 2.10e+03    -  9.97e-01 1.19e-05f 17
  15  3.1511778e+01 1.04e-12 1.37e+12  -9.0 1.67e+03    -  9.98e-01 1.50e-05f 17
  16  3.1511778e+01 1.72e-12 1.37e+12  -9.0 1.64e+03    -  1.00e+00 1.90e-06f 20
  17  3.1511778e+01 1.47e-12 1.37e+12  -9.0 1.64e+03    -  1.00e+00 4.77e-07f 22
  18  3.1511774e+01 1.99e-12 1.37e+12  -9.0 1.64e+03    -  1.00e+00 3.05e-05f 16
  19  3.1383689e+01 1.22e-03 4.56e+06  -9.0 1.64e+03    -  1.00e+00 1.00e+00f  1
iter    objective    inf_pr   inf_du lg(mu)  ||d||  lg(rg) alpha_du alpha_pr  ls
  20  3.1382134e+01 1.14e-07 8.78e-04  -9.0 1.90e+01    -  1.00e+00 1.00e+00h  1
  21  3.1382134e+01 3.37e-12 2.18e-11  -9.0 2.52e-04    -  1.00e+00 1.00e+00h  1

Number of Iterations....: 21

                                   (scaled)                 (unscaled)
Objective...............:   3.1382134050580792e+01    3.1382134050580792e+01
Dual infeasibility......:   2.1827872842550278e-11    2.1827872842550278e-11
Constraint violation....:   3.3684166567127249e-12    3.3684166567127249e-12
Complementarity.........:   9.0909103379342645e-10    9.0909103379342645e-10
Overall NLP error.......:   1.3284678907133809e-10    9.0909103379342645e-10


Number of objective function evaluations             = 143
Number of objective gradient evaluations             = 22
Number of equality constraint evaluations            = 143
Number of inequality constraint evaluations          = 0
Number of equality constraint Jacobian evaluations   = 22
Number of inequality constraint Jacobian evaluations = 0
Number of Lagrangian Hessian evaluations             = 21
Total CPU secs in IPOPT (w/o function evaluations)   =      0.048
Total CPU secs in NLP function evaluations           =      1.158

EXIT: Optimal Solution Found.
